Project2/iir.asapalap_equations.lp
min: a1 + a2;
c1: X11 = 1;
c2: X21 = 1;
c3: X31 + X32= 1;
c4: X41 + X42 + X43= 1;
c5: X51 + X52 + X53 + X54= 1;
c6: X61 + X62 + X63 + X64 + X65= 1;
c7: X71 + X72 + X73 + X74 + X75 + X76= 1;
c8: X83 = 1;
c9: X94 = 1;
c10: X105 = 1;
c11: X117 = 1;
c12: X122 = 1;
c13: X136 = 1;
c14: X142 + X143 + X144 + X145 + X146= 1;
c15: X154 + X155 + X156 + X157= 1;
c16: X167 = 1;
c17: X18 = 1;

c18: X11 + X21 + X31 + X41 + X51 + X61 + X71 - a1 <= 0;
c19: X32 + X42 + X52 + X62 + X72 - a1 <= 0;
c20: X43 + X53 + X63 + X73 - a1 <= 0;
c21: X54 + X64 + X74 - a1 <= 0;
c22: X65 + X75 - a1 <= 0;
c23: X76 - a1 <= 0;

c24: X122 + X142 - a2 <= 0;
c25: X83 + X143 - a2 <= 0;
c26: X94 + X144 + X154 - a2 <= 0;
c27: X105 + X145 + X155 - a2 <= 0;
c28: X136 + X146 + X156 - a2 <= 0;
c29: X117 + X157 + X167 - a2 <= 0;

int a1, a2, X31, X32, X41, X42, X43, X51, X52, X53, X54, X61, X62, X63, X64, X65, X71, X72, X73, X74, X75, X76, X142, X143, X144, X145, X146, X154, X155, X156, X157;
