Project2/iir.asapalap_equations.lp.output

Value of objective function: 4

Actual values of the variables:
a1                              2
a2                              2
X11                             1
X21                             1
X31                             0
X32                             1
X41                             0
X42                             0
X43                             1
X51                             0
X52                             0
X53                             0
X54                             1
X61                             0
X62                             0
X63                             0
X64                             0
X65                             1
X71                             0
X72                             0
X73                             0
X74                             0
X75                             0
X76                             1
X83                             1
X94                             1
X105                            1
X117                            1
X122                            1
X136                            1
X142                            0
X143                            0
X144                            0
X145                            0
X146                            1
X154                            0
X155                            1
X156                            0
X157                            0
X167                            1
X18                             1
